max_width = 37;
n_blocks = 27;
width = [12, 4, 4, 3, 3, 3, 5, 3, 3, 3, 3, 5, 4, 3, 3, 3, 5, 4, 3, 4, 3, 5, 4, 3, 5, 4, 3];
height = [37, 24, 22, 21, 18, 17, 14, 14, 13, 12, 11, 10, 10, 9, 8, 7, 6, 6, 6, 5, 5, 4, 4, 4, 3, 3, 3];
